50

98 45 312
96 36 299
95 19 288
94 25 436
92 36 413
89 15 450
88 15 333
88 27 323
87 5 422
87 24 413
86 22 271
85 12 284
83 14 403
80 21 353
80 8 264
77 14 351
76 26 349
76 16 379
73 1 377
72 8 385
71 35 279
69 8 288
69 26 425
69 31 442
57 14 382
57 8 424
53 19 259
50 8 417
45 16 372
45 6 330
44 2 425
44 16 414
43 3 424
42 21 338
37 10 350
36 11 273
36 18 154
35 7 425
35 14 446
34 12 297
33 14 193
31 13 224
30 5 294
27 9 393
24 10 158
24 8 78
23 11 253
21 7 359
20 3 375
20 7 303
